10	5
0	3	2	3	1
1	1	4
2	1	7
3	1	8
4	1	10
5	1	8
6	0
7	1	6
8	1	4
9	1	5
10	1	11
11	0
0	0	0	0	0	0	0
1	6	3	0	2	0	1
2	8	0	0	0	1	0
3	6	3	5	4	4	5
4	2	0	5	0	0	0
5	1	3	0	0	0	0
6	10	1	5	0	0	0
7	3	4	5	2	5	5
8	4	4	3	4	0	2
9	9	0	0	3	0	0
10	3	0	5	0	0	1
11	0	0	0	0	0	0
4	5	5	5	5
